493 890 1 0 0
1 0.0 0.0 0.0
2 0.5 -1.0 0.0
3 1.0 -1.0 0.0
4 1.0 1.0 0.0
5 -1.0 1.0 0.0
6 -1.0 -1.0 0.0
7 -0.5 -1.0 0.0
8 0.04166666666658671 -0.08333333333317343 0.0
9 0.08333333333316088 -0.1666666666663218 0.0
10 0.1249999999997062 -0.2499999999994123 0.0
11 0.1666666666662514 -0.3333333333325029 0.0
12 0.2083333333327965 -0.416666666665593 0.0
13 0.249999999999347 -0.499999999998694 0.0
14 0.291666666666118 -0.583333333332236 0.0
15 0.3333333333328944 -0.6666666666657889 0.0
16 0.3749999999996708 -0.7499999999993416 0.0
17 0.4166666666664472 -0.8333333333328944 0.0
18 0.4583333333332236 -0.9166666666664472 0.0
19 0.5999999999999998 -1.0 0.0
20 0.6999999999999998 -1.0 0.0
21 0.7999999999999999 -1.0 0.0
22 0.8999999999999999 -1.0 0.0
23 1.0 -0.9000000000002774 0.0
24 1.0 -0.8000000000005547 0.0
25 1.0 -0.7000000000008322 0.0
26 1.0 -0.6000000000011096 0.0
27 1.0 -0.500000000001387 0.0
28 1.0 -0.4000000000016644 0.0
29 1.0 -0.3000000000019418 0.0
30 1.0 -0.2000000000022192 0.0
31 1.0 -0.1000000000024964 0.0
32 1.0 -2.752242878045763e-12 0.0
33 1.0 0.09999999999750342 0.0
34 1.0 0.1999999999977808 0.0
35 1.0 0.2999999999980583 0.0
36 1.0 0.3999999999983355 0.0
37 1.0 0.4999999999986129 0.0
38 1.0 0.5999999999988903 0.0
39 1.0 0.699999999999168 0.0
40 1.0 0.7999999999994454 0.0
41 1.0 0.8999999999997226 0.0
42 0.9000000000002774 1.0 0.0
43 0.8000000000005547 1.0 0.0
44 0.7000000000008322 1.0 0.0
45 0.6000000000011096 1.0 0.0
46 0.500000000001387 1.0 0.0
47 0.4000000000016644 1.0 0.0
48 0.3000000000019418 1.0 0.0
49 0.2000000000022192 1.0 0.0
50 0.1000000000024964 1.0 0.0
51 2.752242878045763e-12 1.0 0.0
52 -0.09999999999750342 1.0 0.0
53 -0.1999999999977808 1.0 0.0
54 -0.2999999999980583 1.0 0.0
55 -0.3999999999983355 1.0 0.0
56 -0.4999999999986129 1.0 0.0
57 -0.5999999999988903 1.0 0.0
58 -0.699999999999168 1.0 0.0
59 -0.7999999999994454 1.0 0.0
60 -0.8999999999997226 1.0 0.0
61 -1.0 0.9000000000002774 0.0
62 -1.0 0.8000000000005547 0.0
63 -1.0 0.7000000000008322 0.0
64 -1.0 0.6000000000011096 0.0
65 -1.0 0.500000000001387 0.0
66 -1.0 0.4000000000016644 0.0
67 -1.0 0.3000000000019418 0.0
68 -1.0 0.2000000000022192 0.0
69 -1.0 0.1000000000024964 0.0
70 -1.0 2.752242878045763e-12 0.0
71 -1.0 -0.09999999999750342 0.0
72 -1.0 -0.1999999999977808 0.0
73 -1.0 -0.2999999999980583 0.0
74 -1.0 -0.3999999999983355 0.0
75 -1.0 -0.4999999999986129 0.0
76 -1.0 -0.5999999999988903 0.0
77 -1.0 -0.699999999999168 0.0
78 -1.0 -0.7999999999994454 0.0
79 -1.0 -0.8999999999997226 0.0
80 -0.9000000000000002 -1.0 0.0
81 -0.8000000000000002 -1.0 0.0
82 -0.7000000000000001 -1.0 0.0
83 -0.6000000000000001 -1.0 0.0
84 -0.4583333333331598 -0.9166666666663196 0.0
85 -0.4166666666665508 -0.8333333333331017 0.0
86 -0.3750000000001732 -0.7500000000003464 0.0
87 -0.3333333333337956 -0.6666666666675911 0.0
88 -0.2916666666674181 -0.5833333333348362 0.0
89 -0.2500000000010298 -0.5000000000020596 0.0
90 -0.2083333333342006 -0.4166666666684011 0.0
91 -0.1666666666673605 -0.3333333333347209 0.0
92 -0.1250000000005204 -0.2500000000010407 0.0
93 -0.0833333333336802 -0.1666666666673604 0.0
94 -0.0416666666668401 -0.0833333333336802 0.0
95 0.3636764276086202 0.9249103361190827 0.0
96 -0.9194474189279302 0.3450970496126538 0.0
97 0.9133132638107011 0.3496015213291295 0.0
98 -0.3499999999981968 0.9133974596213161 0.0
99 0.05000000000262442 0.913397459621787 0.0
100 -0.09322972139006902 -0.005580922660087136 0.0
101 0.09380572898239187 -0.002048431685161301 0.0
102 -0.05136081799743673 0.07826394129571508 0.0
103 0.2180021169814716 -0.2555822748417112 0.0
104 -0.2188842141748265 -0.2601898810049021 0.0
105 -0.1450673028763506 0.0725858317932453 0.0
106 0.9183917396528766 0.05395474327534442 0.0
107 -0.1029571546838731 0.1569862537417787 0.0
108 -0.9128587667747206 0.03741505275086539 0.0
109 -0.1973611955761455 0.1512770646138249 0.0
110 -0.1549675487531192 0.236125253420863 0.0
111 -0.06004807587681786 0.2416193562609877 0.0
112 0.3317609450268137 -0.498987630063627 0.0
113 -0.3440988121597592 -0.5132216549751966 0.0
114 -0.2499703372557182 0.2306101223776859 0.0
115 -0.2924538936989846 0.1450136863030599 0.0
116 -0.9138607683493111 -0.2521454737121043 0.0
117 0.9133974596217964 -0.2500000000020805 0.0
118 -0.1124138982370518 0.3213227259996015 0.0
119 -0.01672170402281871 0.3267099929063471 0.0
120 -0.6520858606982131 0.9114295774908836 0.0
121 0.9081395845906176 0.642578199088954 0.0
122 -0.3454691010248704 0.2249396569168272 0.0
123 0.9208353002722685 -0.5442421644348139 0.0
124 -0.9149948614530401 -0.5472346676231533 0.0
125 -0.3882605895823519 0.1385920208280241 0.0
126 -0.06955825553301016 0.4069791772843518 0.0
127 0.02651613931490057 0.4123985970286766 0.0
128 0.07907876080039429 0.3318860897889369 0.0
129 0.1225880591700303 0.4177691829402019 0.0
130 0.1755525306659159 0.336363218350045 0.0
131 0.2189471130318905 0.4226865051219248 0.0
132 0.2722397658976897 0.3409443487392693 0.0
133 0.3155591585874884 0.4280128114194897 0.0
134 0.3687848997852592 0.3466322826496583 0.0
135 0.4124767376974717 0.4339127162059822 0.0
136 -0.4687466823952642 -0.7669862803766336 0.0
137 0.4731613317802922 -0.7581979768087868 0.0
138 -0.4415522836799298 0.2189285244409971 0.0
139 -0.39847525615861 0.3054393655853772 0.0
140 0.4655827165910837 0.3524269430424652 0.0
141 0.4218709285386654 0.2652123104472756 0.0
142 -0.4844439669199585 0.1325011866429922 0.0
143 0.5098405948328006 0.4394041015960868 0.0
144 0.5187030446249523 0.2708184388820056 0.0
145 0.4746397629455558 0.1840153261122888 0.0
146 0.6510221647333054 0.9231748957593104 0.0
147 -0.9088131253279084 0.6385202530287599 0.0
148 -0.4951750287190734 0.2994140901481284 0.0
149 -0.4517586112671486 0.3864752180851392 0.0
150 -0.02607284591177385 0.4930957844264127 0.0
151 -0.1499999999976421 0.9133974596213253 0.0
152 0.1672201934977554 0.5034620079712174 0.0
153 -0.4310107771600987 0.05209314924909775 0.0
154 -0.5270985952003031 0.04585281466449668 0.0
155 -0.4737394598694345 -0.03442542814291345 0.0
156 -0.1227942625253614 0.4874971334606046 0.0
157 0.4563319805186392 0.5212913396220644 0.0
158 0.7556101406109337 -0.9067977085492951 0.0
159 -0.9045341485661594 -0.7418952783396875 0.0
160 -0.5698771315673729 -0.04075973597014844 0.0
161 -0.5166417686408866 -0.1211886177713153 0.0
162 -0.5491181798125484 0.3803888724541711 0.0
163 -0.5053966557590348 0.4679783736849518 0.0
164 -0.5811733458143911 0.1253260470950124 0.0
165 0.5541978177009413 0.5267654499450903 0.0
166 0.5716880736963653 0.1892592814526924 0.0
167 0.5274875440662812 0.1026600686254388 0.0
168 0.4307835706558859 0.09744227839816642 0.0
169 0.4834668419761661 0.01644652963185039 0.0
170 0.5802197346669723 0.02131714749046274 0.0
171 0.5360580202417131 -0.06482374628452284 0.0
172 -0.603135692117981 0.4620033230995698 0.0
173 -0.5592748374608927 0.5497253360231871 0.0
174 -0.4613460310149303 0.5556385978237225 0.0
175 0.5004126780683611 0.609072959424902 0.0
176 -0.07906001526463194 0.5741970181444089 0.0
177 0.6328873657589829 -0.06015283673054839 0.0
178 0.5885140558861481 -0.146286969727937 0.0
179 0.5987596200914731 0.6145333245709419 0.0
180 -0.6129688364558233 -0.1272780108898684 0.0
181 -0.5595415837129218 -0.2079204619565001 0.0
182 0.3870670094514994 0.01150610337409235 0.0
183 0.334705611520568 0.09202624663703671 0.0
184 0.6076728422324713 0.4444302259179336 0.0
185 -0.51533127287624 0.637682375821891 0.0
186 -0.4170879256572156 0.6434494867477022 0.0
187 0.4022802048978247 0.6032869093242929 0.0
188 -0.1867706181027028 -0.0116722857756748 0.0
189 -0.6127080793736199 0.6255604563922464 0.0
190 0.4920135842337672 -0.1505181517926361 0.0
191 0.5444382366331139 -0.2322596851567887 0.0
192 -0.6502140339876176 -0.9165629115184638 0.0
193 0.6408966932336266 -0.2276107427434991 0.0
194 0.5965186395588348 -0.3138648669271472 0.0
195 -0.6468951103460445 0.3741099866729006 0.0
196 -0.7012123239605925 0.4560444894085549 0.0
197 -0.6559326068116318 -0.2140149789162573 0.0
198 -0.6021823715131206 -0.2944222836421389 0.0
199 -0.5060660819976212 -0.2882965816626241 0.0
200 -0.5486249833588188 -0.3747030446544912 0.0
201 -0.6448132869904976 -0.3809858408125622 0.0
202 -0.5910991198713846 -0.4612364662632218 0.0
203 -0.7099892139193426 -0.1332334363186926 0.0
204 0.1323250799182307 0.2504722908226919 0.0
205 0.9144723261052898 -0.7520832194173793 0.0
206 0.6931462352200906 -0.3091184048810829 0.0
207 0.6487393452491728 -0.3955453786932595 0.0
208 0.5003213596511435 -0.3184274328947986 0.0
209 -0.3547551733111494 0.3919494102076938 0.0
210 -0.4206728265615816 -0.1152788651187942 0.0
211 -0.175877251705812 0.568211993876237 0.0
212 -0.1318388402174738 0.6552384286271639 0.0
213 -0.03483713132914519 0.6611887466481545 0.0
214 0.5447406031001769 0.697158223760692 0.0
215 0.6438318286517526 0.6968897387538222 0.0
216 0.6772966531282358 0.02619258125195177 0.0
217 0.7301639185345032 -0.05548834093420657 0.0
218 -0.6838754009019744 -0.4653273281072917 0.0
219 -0.6328210152300056 -0.5473195015671362 0.0
220 -0.4712648643870857 0.7258124628361178 0.0
221 0.7457619439985287 -0.3907638505845629 0.0
222 0.7010294973425504 -0.477017851855115 0.0
223 0.6043325646203365 -0.481696841957125 0.0
224 0.6563329098986634 -0.5630185571707125 0.0
225 0.697626276225008 0.6188159397163083 0.0
226 0.5600402998784749 -0.5672570023532418 0.0
227 0.6118218928341208 -0.6486422772297762 0.0
228 0.708461536520686 -0.644373633567128 0.0
229 -0.7412834684965777 -0.3873139377108626 0.0
230 -0.5372725838183435 -0.5407982899428603 0.0
231 0.9086633179947161 0.8399342423868533 0.0
232 -0.8522041377524434 0.9111886666741288 0.0
233 0.2899717296443479 0.006026546510016462 0.0
234 0.2365063885716718 0.08574847264808179 0.0
235 0.3432570354511282 -0.07365309895112243 0.0
236 0.6634904965432779 -0.7305380343106906 0.0
237 -0.3689825957442415 0.7322731870440693 0.0
238 0.7456642006423704 0.7092203901044832 0.0
239 0.6160994482773776 0.2760433918334818 0.0
240 0.6691491468363362 0.194376836566435 0.0
241 0.7139431567340849 0.2809927897196085 0.0
242 0.7672711597687589 0.1993855185508082 0.0
243 -0.7416438325250163 -0.5475907956568578 0.0
244 -0.6776755035157463 -0.6336048496435942 0.0
245 -0.3647328810855129 0.5599014258799583 0.0
246 0.251464389699495 -0.07703043128529585 0.0
247 0.7368056805659037 -0.2226315908339782 0.0
248 -0.4541715213524053 -0.3677925354934709 0.0
249 -0.4108358025570869 -0.2824502208132697 0.0
250 -0.08522776663664483 0.7413944476077543 0.0
251 -0.1741778724873679 0.7374800865945353 0.0
252 0.009951735910005127 0.7464972029295376 0.0
253 0.06292367797958981 0.6664349021958227 0.0
254 0.1075550754896719 0.7518702065010122 0.0
255 0.1609891985614792 0.6717453622460176 0.0
256 0.205715720367472 0.756266784021167 0.0
257 0.5100134090544813 -0.4843993940156184 0.0
258 -0.772029278566277 -0.6465537272273578 0.0
259 -0.7188006792198843 -0.7231312396163799 0.0
260 -0.8425785322474378 -0.9003723262755793 0.0
261 0.2818553440079268 0.1722617912670151 0.0
262 -0.7428537069358541 0.3693301564826048 0.0
263 -0.6901825590385322 0.2865256211638091 0.0
264 -0.799626536526533 0.4527863192829074 0.0
265 -0.7554637514925302 0.5365801352215075 0.0
266 -0.3564416485885612 -0.3562651252802851 0.0
267 -0.7545634272718413 -0.2189571939296773 0.0
268 -0.8054081141354659 -0.1373955292379413 0.0
269 -0.763883458030358 -0.0514780773831192 0.0
270 -0.781564563214489 0.2858388839608646 0.0
271 -0.7329120497056112 0.1990449424903208 0.0
272 -0.833652747907036 0.1984210494710302 0.0
273 0.4690691141722648 -0.5750615092450994 0.0
274 -0.6236962362141514 -0.7141823780128891 0.0
275 -0.2180417078674971 0.4816813222497836 0.0
276 -0.7728771008615452 0.1112970168860305 0.0
277 0.2589177024518486 0.6770508640101448 0.0
278 0.3033383609314394 0.7632685792243209 0.0
279 0.7579529137436585 -0.724873392211603 0.0
280 0.6014353056669274 0.7830818742629213 0.0
281 0.4933671554956583 0.7790926674254219 0.0
282 0.7707934901664154 0.02819210670778769 0.0
283 0.8281109498080927 -0.05103429417592875 0.0
284 0.8012247064796401 -0.6423597700415832 0.0
285 0.3037364375573381 -0.1564774352542213 0.0
286 0.7899416741866749 -0.4792669764536695 0.0
287 0.8419391436605311 -0.3976298948307552 0.0
288 0.5317509517281918 0.8664727756915712 0.0
289 -0.853895278873612 0.5389646368041083 0.0
290 -0.02985711079079306 0.8283650392818477 0.0
291 0.1520442322260041 0.8433153118804738 0.0
292 -0.4166634522118857 0.8336274665900619 0.0
293 -0.5189060046277314 0.8124091691102221 0.0
294 0.0432979672378859 0.08138798864018404 0.0
295 -0.8576104120910386 -0.05376680729357575 0.0
296 0.7999806289343017 0.6300160894610253 0.0
297 0.7522527446286836 0.5372592932251137 0.0
298 0.8508473761561843 0.5452220894554858 0.0
299 0.8019849923122349 0.4557855341819765 0.0
300 0.8257424100283608 0.2923426078308533 0.0
301 0.851582959481251 0.2024414286242873 0.0
302 -0.6629636947418621 -0.7988361690299655 0.0
303 -0.7620355666582272 -0.8193812607954861 0.0
304 -0.5651875676795389 -0.7811020925416619 0.0
305 -0.8014440401093285 0.6233941707089237 0.0
306 -0.8350369649680324 0.7180504619074296 0.0
307 -0.7421453110798464 0.7000197932539638 0.0
308 -0.7692034491037707 0.783779811189204 0.0
309 -0.6724122718491884 0.7660083452874513 0.0
310 0.1393679734056854 0.08163996246133533 0.0
311 0.7154391839224048 -0.8128817124229222 0.0
312 0.6135569069485618 -0.8156480111175313 0.0
313 0.8225149142206158 -0.8079974228272775 0.0
314 0.854277153227819 -0.9115701874861888 0.0
315 -0.9075582311905552 -0.1443739186193972 0.0
316 -0.3143769961661532 -0.2706855639833345 0.0
317 0.1855623414784259 0.167472229275736 0.0
318 -0.4822849905051456 0.8957847889613657 0.0
319 0.9054289356693613 0.454259157617659 0.0
320 0.1940809756677417 0.0006335976849786568 0.0
321 0.1535677666704603 -0.09279464683591154 0.0
322 0.2288420369129455 0.2543942259663933 0.0
323 -0.3685776051730259 -0.1941437505413954 0.0
324 0.5525912086855967 -0.3995715537138801 0.0
325 0.4586388225805285 -0.4022861891945203 0.0
326 0.4052707576519839 -0.32247829513835 0.0
327 0.3691568803351564 -0.4104048171815425 0.0
328 0.3077620572952889 -0.3197886443516529 0.0
329 0.3534972020261704 -0.2428874279943604 0.0
330 0.516865022380341 -0.6560901815246855 0.0
331 0.3968085843485903 -0.1549490853471561 0.0
332 -0.496717769613892 -0.453875694116938 0.0
333 -0.4411303377868832 -0.5274282572896156 0.0
334 -0.4815805983356707 -0.6109253421994176 0.0
335 -0.6773881078985715 0.1185913426247785 0.0
336 -0.7472672951590857 -0.9145976545611687 0.0
337 -0.5814893214490825 -0.6248069523153852 0.0
338 -0.377859455652196 -0.02836663718341265 0.0
339 -0.3260446653189177 -0.1080657612222123 0.0
340 -0.2823568212453878 -0.0208732277103932 0.0
341 -0.2301710902519031 -0.09820091611240274 0.0
342 -0.3351335666465676 0.05886156143227268 0.0
343 -0.9214272702392045 0.2481497441301578 0.0
344 0.2128983745279937 0.5898703083099981 0.0
345 -0.2500358976202359 0.9143657643444387 0.0
346 -0.3028469676226642 0.8271614487020915 0.0
347 0.03614528695175465 0.2463626256788875 0.0
348 -0.9162333569395278 -0.6392198629023229 0.0
349 0.9015816271945564 -0.6450254612815152 0.0
350 0.7065038933839992 0.448401832932667 0.0
351 -0.9148337931810031 -0.3501604515808985 0.0
352 -0.8174221517208605 -0.3026476067908833 0.0
353 -0.915248098828398 -0.4494185788821755 0.0
354 -0.8340744961453195 -0.4980060620566605 0.0
355 0.9190559977187707 -0.1556410809935063 0.0
356 0.2502218270270439 0.9135255315143724 0.0
357 -0.90771426901164 0.4507313251604871 0.0
358 0.08890629432683825 0.1649832218671788 0.0
359 -0.3187577145662587 0.6492099066955973 0.0
360 0.5670790293414248 -0.7344450805075339 0.0
361 -0.4636670069766953 -0.2020076177661594 0.0
362 0.6563963764202408 -0.9045371019903257 0.0
363 0.548595591231787 -0.900167353032327 0.0
364 0.7493305535008448 0.9155240299786627 0.0
365 0.6829860441416643 0.8434805554360016 0.0
366 0.7810902405730982 0.8160288204242665 0.0
367 0.8455680723415055 0.731296290244148 0.0
368 0.4303430836668694 0.8524625054357516 0.0
369 -0.7501890541182323 0.9153910500840367 0.0
370 -0.5926317565970868 0.2926996700451731 0.0
371 0.378228729529681 0.1783015717008976 0.0
372 0.4487249540907949 -0.2369200130540149 0.0
373 -0.8610045156243376 0.8136084726185777 0.0
374 0.01832415128070641 0.579644695442541 0.0
375 0.4478315668797882 0.6908010530567267 0.0
376 0.4396903445212977 -0.06918159596097853 0.0
377 -0.1348380218495814 -0.08982374009013487 0.0
378 -0.4086289056446823 0.4731174527101861 0.0
379 0.3596321326210042 0.5148614230092416 0.0
380 -0.1650706623529144 0.4014574551593384 0.0
381 -0.30247578371508 0.3109952782463244 0.0
382 -0.80719068127583 -0.7332907667763642 0.0
383 -0.6569987147455851 0.540487797442412 0.0
384 0.652835532377096 0.5317010110513424 0.0
385 0.3254082094767683 0.2592458367576242 0.0
386 -0.5803081461035682 0.7243500427742254 0.0
387 0.6245125956922186 0.1077792259922465 0.0
388 0.07051542107445997 0.498600177355024 0.0
389 0.5630091169002109 0.3576398919656198 0.0
390 0.7484334940391031 -0.5616000739163043 0.0
391 -0.5384768908352409 0.2124861148872616 0.0
392 0.6852339961982477 -0.1415079474239395 0.0
393 -0.2398572330243565 0.06586543844272247 0.0
394 -0.6663666379502956 -0.04715273037263135 0.0
395 -0.7026995521340882 -0.2997236403003969 0.0
396 -0.2075374413922643 0.3160552691512517 0.0
397 0.7851583805612129 -0.3071442652131747 0.0
398 -0.007669416673608144 0.1616005645807886 0.0
399 0.7216703841422341 0.1122299109639334 0.0
400 0.8282480594214514 0.1074969958668185 0.0
401 0.7766547626467301 -0.1340847765532784 0.0
402 -0.6358849632810055 0.2060471709512665 0.0
403 0.6607332917091626 0.3624730114109142 0.0
404 -0.5513960280776925 -0.9229709922481419 0.0
405 0.4256061695230493 -0.6726135819041819 0.0
406 0.1154785028203307 0.58495957558677 0.0
407 0.925241046468163 -0.4486218448646238 0.0
408 -0.6235015354408783 0.03876097325175485 0.0
409 -0.2602774750115371 0.3964834042656737 0.0
410 0.2638140231347721 0.5090336497508667 0.0
411 0.7585566612066293 0.3667461622301773 0.0
412 -0.1782592685755608 -0.1751785836123924 0.0
413 -0.3133726254161828 0.4769508701572561 0.0
414 -0.2132209563824243 0.823515178666928 0.0
415 -0.2727189732767312 -0.1844107427461066 0.0
416 0.3086271665425003 0.5953088426733291 0.0
417 -0.9203670833484968 0.147227069141962 0.0
418 -0.2693838054982906 0.5639146862514579 0.0
419 -0.7203068746215939 0.03245662772130804 0.0
420 0.162893173352912 -0.181866641851093 0.0
421 0.3530255975370274 0.6834962485382953 0.0
422 -0.9186181030524594 -0.8457313258177455 0.0
423 -0.2249588380875876 0.6512932548603488 0.0
424 0.8443131718854091 0.9163803353387663 0.0
425 -0.8318576423072274 -0.4055075082028588 0.0
426 -0.8156861322300397 0.02701485809401986 0.0
427 -0.258625167228423 -0.3429979719108975 0.0
428 0.3956685246932066 0.7670558316736208 0.0
429 -0.2707460774537284 0.7359313913862635 0.0
430 -0.3041069814462025 -0.4289131243624316 0.0
431 0.3792217846659626 -0.5797200573483569 0.0
432 0.9090618391079154 -0.05013655301565122 0.0
433 -0.3994445118246173 -0.4412493985863229 0.0
434 0.8352293640394387 -0.2134289343281442 0.0
435 -0.3829903101623801 -0.5951592253092293 0.0
436 -0.05445617068722434 0.9171238788952915 0.0
437 -0.4295901526346436 -0.6819581445132721 0.0
438 0.9195574169989693 -0.8473839932488516 0.0
439 -0.5250484264513918 -0.6966601983265432 0.0
440 0.9255837062401344 -0.3500000000018031 0.0
441 0.0579387865675025 0.8166890440429317 0.0
442 -0.9237314414702614 0.753363197926095 0.0
443 0.4196434926392012 -0.4918099328414607 0.0
444 -0.5101758406588359 -0.8469096263570957 0.0
445 0.5365429352755662 -0.8124095025855772 0.0
446 -0.7055884574514135 0.6192395406863193 0.0
447 -0.5600067562553557 0.9055343557392097 0.0
448 0.9210775051694895 0.1366977709038183 0.0
449 0.1504532118520776 0.9340476606033268 0.0
450 -0.8321031991658161 0.3692203012661079 0.0
451 -0.8361003118560665 -0.5863819326171218 0.0
452 0.9324741949853679 0.7427617463437137 0.0
453 0.2514851048400833 0.8219180286003085 0.0
454 0.9228244631782061 0.2663280491215856 0.0
455 -0.8387396059252912 -0.2128769946412859 0.0
456 -0.7084424985673857 0.8413783581132253 0.0
457 0.2843522412637386 -0.4158412737439008 0.0
458 0.9336268719939803 0.5499999999987516 0.0
459 -0.8469914063600227 -0.8081341916009723 0.0
460 -0.934731086344824 0.5500000000012485 0.0
461 0.8399433318771922 -0.7140283010156998 0.0
462 0.8336106398064042 -0.5635636544096178 0.0
463 -0.606763681703541 0.8135825988727869 0.0
464 0.8410052526054574 0.3837469966379591 0.0
465 0.3324555547945438 0.8405234687612426 0.0
466 -0.1178233128303494 0.8268793484446136 0.0
467 -0.9338178143144253 0.8503183012834479 0.0
468 0.2370232831079094 -0.3482424385870722 0.0
469 -0.937682494587087 -0.051094456443292 0.0
470 0.4590202932156716 0.9336110458391234 0.0
471 -0.9267949192431596 -0.9267949192430849 0.0
472 0.926794919242964 0.926794919242815 0.0
473 -0.9270801751065516 0.9270801751067024 0.0
474 -0.7627232787237095 -0.4601221515620304 0.0
475 -0.8542637151700199 0.09937656849500297 0.0
476 -0.6632434230961112 0.6877097086559901 0.0
477 0.9282400488996513 -0.9282400488997297 0.0
478 0.552079272442735 0.9395113791900382 0.0
479 0.8646082581551232 -0.3066880954490217 0.0
480 0.2835120927280061 -0.2238050806708107 0.0
481 -0.6028871321856244 -0.8584379165674968 0.0
482 -0.7969311344431003 0.8567747533593324 0.0
483 -0.8576390398908953 0.2893454056881629 0.0
484 0.8469491775691352 0.01957749204175021 0.0
485 -0.8472175554407722 -0.6694683135725708 0.0
486 0.6055399436604871 0.8598495990904269 0.0
487 -0.7000126298189026 -0.8637312825635935 0.0
488 0.6910015239351626 0.769740275796299 0.0
489 -0.4190166330450644 0.931285714872268 0.0
490 0.8509250090065332 -0.1178127312519695 0.0
491 0.4835555694133662 -0.8487757623920635 0.0
492 0.8623135608788083 -0.486664906998696 0.0
493 0.2316544931735636 -0.1546483611558491 0.0
95 1 tri 231 366 367
96 1 tri 352 229 395
97 1 tri 56 57 447
98 1 tri 98 292 346
99 1 tri 303 260 336
100 1 tri 292 237 346
101 1 tri 238 366 488
102 1 tri 231 367 452
103 1 tri 260 303 459
104 1 tri 2 19 363
105 1 tri 366 238 367
106 1 tri 267 352 395
107 1 tri 147 289 305
108 1 tri 121 296 298
109 1 tri 318 56 447
110 1 tri 436 151 466
111 1 tri 296 121 367
112 1 tri 290 436 466
113 1 tri 448 34 454
114 1 tri 366 365 488
115 1 tri 289 147 460
116 1 tri 301 448 454
117 1 tri 18 2 363
118 1 tri 414 346 429
119 1 tri 313 158 314
120 1 tri 251 414 429
121 1 tri 292 98 489
122 1 tri 311 158 313
123 1 tri 101 8 321
124 1 tri 437 334 439
125 1 tri 8 9 321
126 1 tri 431 273 443
127 1 tri 136 437 439
128 1 tri 158 311 362
129 1 tri 290 99 436
130 1 tri 99 290 441
131 1 tri 229 352 425
132 1 tri 311 312 362
133 1 tri 330 137 360
134 1 tri 112 431 443
135 1 tri 291 99 441
136 1 tri 99 291 449
137 1 tri 356 453 465
138 1 tri 95 356 465
139 1 tri 121 298 458
140 1 tri 238 296 367
141 1 tri 97 300 454
142 1 tri 19 362 363
143 1 tri 103 328 480
144 1 tri 291 356 449
145 1 tri 264 357 450
146 1 tri 137 330 405
147 1 tri 328 103 468
148 1 tri 346 237 429
149 1 tri 97 36 319
150 1 tri 356 291 453
151 1 tri 205 313 438
152 1 tri 108 295 426
153 1 tri 430 266 433
154 1 tri 113 430 433
155 1 tri 284 349 462
156 1 tri 264 289 357
157 1 tri 243 354 451
158 1 tri 233 234 320
159 1 tri 57 120 447
160 1 tri 330 273 405
161 1 tri 36 37 319
162 1 tri 295 108 469
163 1 tri 366 231 424
164 1 tri 72 116 315
165 1 tri 158 21 314
166 1 tri 21 22 314
167 1 tri 71 72 315
168 1 tri 246 233 320
169 1 tri 234 310 320
170 1 tri 320 101 321
171 1 tri 300 97 464
172 1 tri 294 101 310
173 1 tri 333 334 435
174 1 tri 103 480 493
175 1 tri 435 334 437
176 1 tri 349 123 462
177 1 tri 405 273 431
178 1 tri 310 234 317
179 1 tri 304 136 439
180 1 tri 365 280 488
181 1 tri 400 106 448
182 1 tri 147 305 306
183 1 tri 412 341 415
184 1 tri 420 103 493
185 1 tri 1 101 294
186 1 tri 357 96 450
187 1 tri 358 347 398
188 1 tri 285 329 331
189 1 tri 280 365 486
190 1 tri 104 412 415
191 1 tri 313 314 438
192 1 tri 313 205 461
193 1 tri 331 329 372
194 1 tri 316 266 427
195 1 tri 132 130 322
196 1 tri 362 312 363
197 1 tri 210 323 339
198 1 tri 204 317 322
199 1 tri 310 317 358
200 1 tri 7 84 404
201 1 tri 188 340 341
202 1 tri 316 104 415
203 1 tri 318 292 489
204 1 tri 130 204 322
205 1 tri 83 7 404
206 1 tri 321 9 420
207 1 tri 333 113 433
208 1 tri 427 266 430
209 1 tri 188 341 377
210 1 tri 342 340 393
211 1 tri 246 320 321
212 1 tri 287 286 492
213 1 tri 294 358 398
214 1 tri 190 331 372
215 1 tri 343 68 417
216 1 tri 317 204 358
217 1 tri 132 322 385
218 1 tri 294 310 358
219 1 tri 407 287 492
220 1 tri 323 210 361
221 1 tri 136 304 444
222 1 tri 340 188 393
223 1 tri 106 400 484
224 1 tri 309 386 463
225 1 tri 300 301 454
226 1 tri 194 208 324
227 1 tri 244 274 337
228 1 tri 134 132 385
229 1 tri 354 243 474
230 1 tri 257 324 325
231 1 tri 324 208 325
232 1 tri 204 347 358
233 1 tri 344 255 406
234 1 tri 271 335 402
235 1 tri 327 328 457
236 1 tri 117 355 434
237 1 tri 306 305 307
238 1 tri 331 190 376
239 1 tri 272 343 417
240 1 tri 258 243 451
241 1 tri 113 333 435
242 1 tri 210 161 361
243 1 tri 335 164 402
244 1 tri 353 124 354
245 1 tri 310 101 320
246 1 tri 226 273 330
247 1 tri 248 200 332
248 1 tri 82 192 336
249 1 tri 350 297 384
250 1 tri 152 344 406
251 1 tri 207 194 324
252 1 tri 75 124 353
253 1 tri 190 171 376
254 1 tri 227 330 360
255 1 tri 338 210 339
256 1 tri 386 309 476
257 1 tri 325 208 326
258 1 tri 184 350 384
259 1 tri 155 210 338
260 1 tri 226 257 273
261 1 tri 115 342 393
262 1 tri 115 125 342
263 1 tri 82 83 192
264 1 tri 274 302 304
265 1 tri 325 326 327
266 1 tri 338 340 342
267 1 tri 332 230 333
268 1 tri 226 223 257
269 1 tri 224 223 226
270 1 tri 227 226 330
271 1 tri 249 248 266
272 1 tri 200 202 332
273 1 tri 116 351 352
274 1 tri 327 112 443
275 1 tri 199 200 248
276 1 tri 151 53 345
277 1 tri 340 339 341
278 1 tri 182 183 233
279 1 tri 124 76 348
280 1 tri 235 233 246
281 1 tri 327 326 328
282 1 tri 169 168 182
283 1 tri 202 230 332
284 1 tri 20 158 362
285 1 tri 202 219 230
286 1 tri 338 339 340
287 1 tri 199 249 361
288 1 tri 181 198 199
289 1 tri 249 323 361
290 1 tri 141 134 385
291 1 tri 155 161 210
292 1 tri 199 248 249
293 1 tri 333 230 334
294 1 tri 19 20 362
295 1 tri 153 155 338
296 1 tri 249 266 316
297 1 tri 326 208 372
298 1 tri 125 153 342
299 1 tri 244 259 274
300 1 tri 167 145 168
301 1 tri 119 111 347
302 1 tri 194 191 208
303 1 tri 222 207 223
304 1 tri 178 171 190
305 1 tri 66 96 357
306 1 tri 219 244 337
307 1 tri 182 233 235
308 1 tri 329 326 372
309 1 tri 351 74 353
310 1 tri 116 73 351
311 1 tri 204 128 347
312 1 tri 323 316 415
313 1 tri 233 183 234
314 1 tri 199 198 200
315 1 tri 153 338 342
316 1 tri 117 30 355
317 1 tri 312 236 360
318 1 tri 345 98 346
319 1 tri 205 25 349
320 1 tri 260 81 336
321 1 tri 311 236 312
322 1 tri 182 168 183
323 1 tri 128 119 347
324 1 tri 81 82 336
325 1 tri 235 246 285
326 1 tri 167 168 169
327 1 tri 74 75 353
328 1 tri 223 207 324
329 1 tri 75 76 124
330 1 tri 72 73 116
331 1 tri 29 30 117
332 1 tri 26 27 123
333 1 tri 104 316 427
334 1 tri 271 276 335
335 1 tri 161 181 361
336 1 tri 306 307 308
337 1 tri 54 98 345
338 1 tri 261 371 385
339 1 tri 183 168 371
340 1 tri 95 48 356
341 1 tri 178 190 191
342 1 tri 32 33 106
343 1 tri 130 128 204
344 1 tri 26 123 349
345 1 tri 96 67 343
346 1 tri 277 255 344
347 1 tri 182 235 376
348 1 tri 236 227 360
349 1 tri 299 297 350
350 1 tri 224 226 227
351 1 tri 52 53 151
352 1 tri 35 36 97
353 1 tri 54 55 98
354 1 tri 50 51 99
355 1 tri 47 48 95
356 1 tri 66 67 96
357 1 tri 69 70 108
358 1 tri 297 225 384
359 1 tri 222 223 224
360 1 tri 186 245 359
361 1 tri 261 183 371
362 1 tri 145 141 371
363 1 tri 176 150 374
364 1 tri 73 74 351
365 1 tri 191 190 372
366 1 tri 77 159 348
367 1 tri 97 319 464
368 1 tri 457 328 468
369 1 tri 148 162 370
370 1 tri 235 331 376
371 1 tri 322 261 385
372 1 tri 65 66 357
373 1 tri 76 77 348
374 1 tri 186 174 245
375 1 tri 30 31 355
376 1 tri 53 54 345
377 1 tri 308 307 309
378 1 tri 48 49 356
379 1 tri 153 154 155
380 1 tri 140 134 141
381 1 tri 364 146 365
382 1 tri 67 68 343
383 1 tri 245 174 378
384 1 tri 144 141 145
385 1 tri 187 175 375
386 1 tri 181 199 361
387 1 tri 170 169 171
388 1 tri 257 223 324
389 1 tri 166 145 167
390 1 tri 159 382 485
391 1 tri 155 160 161
392 1 tri 162 195 370
393 1 tri 234 261 317
394 1 tri 149 209 378
395 1 tri 213 176 374
396 1 tri 161 180 181
397 1 tri 44 146 364
398 1 tri 118 126 380
399 1 tri 25 26 349
400 1 tri 364 365 366
401 1 tri 298 297 299
402 1 tri 296 225 297
403 1 tri 200 201 202
404 1 tri 181 197 198
405 1 tri 77 78 159
406 1 tri 20 21 158
407 1 tri 24 25 205
408 1 tri 171 169 376
409 1 tri 44 45 146
410 1 tri 242 399 400
411 1 tri 237 186 359
412 1 tri 120 58 369
413 1 tri 195 262 263
414 1 tri 133 135 379
415 1 tri 125 142 153
416 1 tri 328 326 329
417 1 tri 122 114 381
418 1 tri 263 270 271
419 1 tri 38 39 121
420 1 tri 57 58 120
421 1 tri 63 64 147
422 1 tri 43 44 364
423 1 tri 274 259 302
424 1 tri 80 81 260
425 1 tri 59 232 369
426 1 tri 254 253 255
427 1 tri 58 59 369
428 1 tri 208 191 372
429 1 tri 202 218 219
430 1 tri 168 145 371
431 1 tri 40 41 231
432 1 tri 252 213 253
433 1 tri 59 60 232
434 1 tri 177 171 178
435 1 tri 348 159 485
436 1 tri 127 119 128
437 1 tri 271 272 276
438 1 tri 256 255 277
439 1 tri 193 191 194
440 1 tri 175 214 375
441 1 tri 249 316 323
442 1 tri 195 263 370
443 1 tri 163 149 378
444 1 tri 306 308 373
445 1 tri 359 245 418
446 1 tri 214 280 281
447 1 tri 296 297 298
448 1 tri 157 175 187
449 1 tri 206 194 207
450 1 tri 173 163 174
451 1 tri 281 288 368
452 1 tri 140 141 144
453 1 tri 253 213 374
454 1 tri 169 182 376
455 1 tri 298 299 319
456 1 tri 156 211 275
457 1 tri 135 157 379
458 1 tri 129 128 130
459 1 tri 185 174 186
460 1 tri 221 207 222
461 1 tri 167 169 170
462 1 tri 230 219 337
463 1 tri 220 186 237
464 1 tri 126 156 380
465 1 tri 139 122 381
466 1 tri 263 262 270
467 1 tri 234 183 261
468 1 tri 149 139 209
469 1 tri 153 142 154
470 1 tri 235 285 331
471 1 tri 254 255 256
472 1 tri 144 145 166
473 1 tri 341 339 415
474 1 tri 252 253 254
475 1 tri 214 281 375
476 1 tri 238 225 296
477 1 tri 256 277 278
478 1 tri 371 141 385
479 1 tri 155 154 160
480 1 tri 215 179 225
481 1 tri 347 111 398
482 1 tri 281 280 288
483 1 tri 131 130 132
484 1 tri 127 128 129
485 1 tri 317 261 322
486 1 tri 271 270 272
487 1 tri 161 160 180
488 1 tri 200 198 201
489 1 tri 178 191 193
490 1 tri 173 174 185
491 1 tri 94 1 100
492 1 tri 1 8 101
493 1 tri 181 180 197
494 1 tri 174 163 378
495 1 tri 133 132 134
496 1 tri 165 143 184
497 1 tri 170 171 177
498 1 tri 162 172 195
499 1 tri 185 186 220
500 1 tri 135 134 140
501 1 tri 215 225 238
502 1 tri 195 196 262
503 1 tri 220 237 292
504 1 tri 289 265 305
505 1 tri 214 215 280
506 1 tri 110 107 111
507 1 tri 219 243 244
508 1 tri 157 187 379
509 1 tri 264 196 265
510 1 tri 93 94 377
511 1 tri 212 176 213
512 1 tri 220 292 293
513 1 tri 399 282 400
514 1 tri 91 92 104
515 1 tri 10 11 103
516 1 tri 334 230 337
517 1 tri 268 203 269
518 1 tri 175 179 214
519 1 tri 167 170 387
520 1 tri 135 143 157
521 1 tri 172 163 173
522 1 tri 250 213 252
523 1 tri 293 292 318
524 1 tri 129 130 131
525 1 tri 214 179 215
526 1 tri 239 166 240
527 1 tri 109 114 115
528 1 tri 118 111 119
529 1 tri 173 185 189
530 1 tri 202 201 218
531 1 tri 135 140 143
532 1 tri 343 272 483
533 1 tri 133 134 135
534 1 tri 126 119 127
535 1 tri 195 172 196
536 1 tri 264 265 289
537 1 tri 262 196 264
538 1 tri 131 132 133
539 1 tri 263 271 402
540 1 tri 212 250 251
541 1 tri 241 240 242
542 1 tri 157 165 175
543 1 tri 13 14 112
544 1 tri 88 89 113
545 1 tri 193 194 206
546 1 tri 254 256 291
547 1 tri 115 122 125
548 1 tri 241 242 300
549 1 tri 239 240 241
550 1 tri 100 105 188
551 1 tri 138 122 139
552 1 tri 156 275 380
553 1 tri 175 165 179
554 1 tri 162 149 163
555 1 tri 144 166 239
556 1 tri 157 143 165
557 1 tri 162 163 172
558 1 tri 219 218 243
559 1 tri 300 242 301
560 1 tri 16 17 137
561 1 tri 85 86 136
562 1 tri 125 138 142
563 1 tri 209 139 381
564 1 tri 156 176 211
565 1 tri 212 213 250
566 1 tri 250 252 290
567 1 tri 164 391 402
568 1 tri 225 179 384
569 1 tri 148 139 149
570 1 tri 206 207 221
571 1 tri 166 167 387
572 1 tri 126 150 156
573 1 tri 211 176 212
574 1 tri 129 131 152
575 1 tri 125 122 138
576 1 tri 110 111 118
577 1 tri 140 144 389
578 1 tri 221 222 286
579 1 tri 126 127 150
580 1 tri 100 1 102
581 1 tri 102 1 294
582 1 tri 170 216 387
583 1 tri 118 119 126
584 1 tri 154 142 164
585 1 tri 115 114 122
586 1 tri 165 184 384
587 1 tri 102 294 398
588 1 tri 216 177 217
589 1 tri 255 253 406
590 1 tri 107 102 398
591 1 tri 244 258 259
592 1 tri 178 193 392
593 1 tri 268 269 295
594 1 tri 148 149 162
595 1 tri 138 139 148
596 1 tri 197 203 267
597 1 tri 184 143 389
598 1 tri 170 177 216
599 1 tri 156 150 176
600 1 tri 216 217 282
601 1 tri 268 295 315
602 1 tri 282 217 283
603 1 tri 197 180 203
604 1 tri 201 198 395
605 1 tri 109 110 114
606 1 tri 272 270 483
607 1 tri 94 100 377
608 1 tri 109 107 110
609 1 tri 144 239 389
610 1 tri 224 227 228
611 1 tri 228 227 236
612 1 tri 265 196 383
613 1 tri 172 173 383
614 1 tri 177 178 392
615 1 tri 143 140 389
616 1 tri 173 189 383
617 1 tri 374 150 388
618 1 tri 179 165 384
619 1 tri 127 129 388
620 1 tri 391 370 402
621 1 tri 220 293 386
622 1 tri 198 197 395
623 1 tri 193 206 247
624 1 tri 185 220 386
625 1 tri 267 203 268
626 1 tri 100 102 105
627 1 tri 240 166 387
628 1 tri 196 172 383
629 1 tri 105 107 109
630 1 tri 105 102 107
631 1 tri 148 370 391
632 1 tri 189 185 386
633 1 tri 221 286 287
634 1 tri 27 28 407
635 1 tri 218 201 229
636 1 tri 228 279 284
637 1 tri 150 127 388
638 1 tri 269 203 394
639 1 tri 244 243 258
640 1 tri 193 247 392
641 1 tri 359 418 423
642 1 tri 229 201 395
643 1 tri 109 115 393
644 1 tri 100 188 377
645 1 tri 259 258 382
646 1 tri 142 138 391
647 1 tri 180 160 394
648 1 tri 302 259 303
649 1 tri 286 222 390
650 1 tri 222 224 390
651 1 tri 129 152 388
652 1 tri 388 152 406
653 1 tri 339 323 415
654 1 tri 242 240 399
655 1 tri 188 105 393
656 1 tri 279 236 311
657 1 tri 118 380 396
658 1 tri 164 142 391
659 1 tri 138 148 391
660 1 tri 110 118 396
661 1 tri 164 335 408
662 1 tri 197 267 395
663 1 tri 217 177 392
664 1 tri 353 354 425
665 1 tri 381 114 396
666 1 tri 111 107 398
667 1 tri 374 388 406
668 1 tri 114 110 396
669 1 tri 392 247 401
670 1 tri 423 251 429
671 1 tri 203 180 394
672 1 tri 105 109 393
673 1 tri 228 236 279
674 1 tri 377 341 412
675 1 tri 350 184 403
676 1 tri 303 259 382
677 1 tri 217 392 401
678 1 tri 368 288 470
679 1 tri 279 311 313
680 1 tri 192 83 404
681 1 tri 345 346 414
682 1 tri 224 228 390
683 1 tri 239 241 403
684 1 tri 15 16 405
685 1 tri 184 389 403
686 1 tri 389 239 403
687 1 tri 344 152 410
688 1 tri 206 221 397
689 1 tri 16 137 405
690 1 tri 247 206 397
691 1 tri 301 242 400
692 1 tri 221 287 397
693 1 tri 216 282 399
694 1 tri 228 284 390
695 1 tri 370 263 402
696 1 tri 283 217 401
697 1 tri 299 350 411
698 1 tri 245 378 413
699 1 tri 120 456 463
700 1 tri 123 27 407
701 1 tri 387 216 399
702 1 tri 410 379 416
703 1 tri 154 164 408
704 1 tri 133 379 410
705 1 tri 240 387 399
706 1 tri 470 288 478
707 1 tri 274 304 439
708 1 tri 253 374 406
709 1 tri 352 351 425
710 1 tri 367 121 452
711 1 tri 332 333 433
712 1 tri 152 131 410
713 1 tri 394 160 408
714 1 tri 403 241 411
715 1 tri 396 380 409
716 1 tri 93 377 412
717 1 tri 381 396 409
718 1 tri 104 92 412
719 1 tri 68 69 417
720 1 tri 266 248 433
721 1 tri 160 154 408
722 1 tri 350 403 411
723 1 tri 364 366 424
724 1 tri 78 79 422
725 1 tri 355 31 432
726 1 tri 42 43 424
727 1 tri 335 276 419
728 1 tri 9 10 420
729 1 tri 407 28 440
730 1 tri 32 106 432
731 1 tri 344 410 416
732 1 tri 281 368 428
733 1 tri 131 133 410
734 1 tri 419 276 426
735 1 tri 349 284 461
736 1 tri 273 257 443
737 1 tri 212 251 423
738 1 tri 241 300 411
739 1 tri 112 327 457
740 1 tri 380 275 409
741 1 tri 209 381 409
742 1 tri 325 327 443
743 1 tri 287 407 440
744 1 tri 92 93 412
745 1 tri 91 104 427
746 1 tri 52 151 436
747 1 tri 99 51 436
748 1 tri 315 116 455
749 1 tri 394 408 419
750 1 tri 409 275 413
751 1 tri 209 409 413
752 1 tri 151 345 414
753 1 tri 359 423 429
754 1 tri 373 232 467
755 1 tri 277 344 416
756 1 tri 334 337 439
757 1 tri 113 89 430
758 1 tri 378 209 413
759 1 tri 112 14 431
760 1 tri 29 117 440
761 1 tri 245 413 418
762 1 tri 277 416 421
763 1 tri 23 24 438
764 1 tri 408 335 419
765 1 tri 15 405 431
766 1 tri 88 113 435
767 1 tri 278 277 421
768 1 tri 69 108 417
769 1 tri 328 329 480
770 1 tri 56 318 489
771 1 tri 124 348 451
772 1 tri 275 211 418
773 1 tri 278 421 428
774 1 tri 136 86 437
775 1 tri 434 355 490
776 1 tri 379 187 416
777 1 tri 71 315 469
778 1 tri 416 187 421
779 1 tri 307 305 446
780 1 tri 356 49 449
781 1 tri 269 419 426
782 1 tri 50 99 449
783 1 tri 418 211 423
784 1 tri 187 375 421
785 1 tri 159 78 422
786 1 tri 301 400 448
787 1 tri 43 364 424
788 1 tri 269 394 419
789 1 tri 290 252 441
790 1 tri 352 267 455
791 1 tri 351 353 425
792 1 tri 254 291 441
793 1 tri 10 103 420
794 1 tri 357 289 460
795 1 tri 33 34 448
796 1 tri 305 265 446
797 1 tri 247 397 434
798 1 tri 211 212 423
799 1 tri 147 306 442
800 1 tri 421 375 428
801 1 tri 422 260 459
802 1 tri 90 91 427
803 1 tri 413 275 418
804 1 tri 319 299 464
805 1 tri 121 39 452
806 1 tri 40 231 452
807 1 tri 295 269 426
808 1 tri 237 359 429
809 1 tri 85 136 444
810 1 tri 375 281 428
811 1 tri 248 332 433
812 1 tri 34 35 454
813 1 tri 89 90 430
814 1 tri 270 262 450
815 1 tri 146 478 486
816 1 tri 90 427 430
817 1 tri 65 357 460
818 1 tri 38 121 458
819 1 tri 383 189 446
820 1 tri 360 137 445
821 1 tri 147 64 460
822 1 tri 14 15 431
823 1 tri 63 147 442
824 1 tri 291 256 453
825 1 tri 31 32 432
826 1 tri 108 70 469
827 1 tri 95 368 470
828 1 tri 447 120 463
829 1 tri 268 315 455
830 1 tri 47 95 470
831 1 tri 13 112 457
832 1 tri 55 56 489
833 1 tri 404 84 444
834 1 tri 319 37 458
835 1 tri 79 6 471
836 1 tri 6 80 471
837 1 tri 41 4 472
838 1 tri 4 42 472
839 1 tri 146 45 478
840 1 tri 404 444 481
841 1 tri 251 250 466
842 1 tri 60 5 473
843 1 tri 5 61 473
844 1 tri 386 293 463
845 1 tri 103 11 468
846 1 tri 87 88 435
847 1 tri 280 215 488
848 1 tri 279 313 461
849 1 tri 51 52 436
850 1 tri 337 274 439
851 1 tri 401 247 434
852 1 tri 315 295 469
853 1 tri 137 17 491
854 1 tri 86 87 437
855 1 tri 243 218 474
856 1 tri 87 435 437
857 1 tri 432 106 484
858 1 tri 151 414 466
859 1 tri 286 390 462
860 1 tri 62 63 442
861 1 tri 246 321 493
862 1 tri 22 3 477
863 1 tri 3 23 477
864 1 tri 24 205 438
865 1 tri 257 325 443
866 1 tri 363 312 445
867 1 tri 414 251 466
868 1 tri 189 386 476
869 1 tri 205 349 461
870 1 tri 62 442 467
871 1 tri 400 282 484
872 1 tri 444 304 481
873 1 tri 298 319 458
874 1 tri 28 29 440
875 1 tri 467 232 473
876 1 tri 306 373 442
877 1 tri 252 254 441
878 1 tri 425 354 474
879 1 tri 312 360 445
880 1 tri 442 373 467
881 1 tri 428 368 465
882 1 tri 368 95 465
883 1 tri 84 85 444
884 1 tri 355 432 490
885 1 tri 411 300 464
886 1 tri 321 420 493
887 1 tri 283 432 484
888 1 tri 434 397 479
889 1 tri 106 33 448
890 1 tri 365 146 486
891 1 tri 265 383 446
892 1 tri 276 272 475
893 1 tri 293 318 447
894 1 tri 49 50 449
895 1 tri 354 124 451
896 1 tri 382 159 459
897 1 tri 308 309 456
898 1 tri 445 137 491
899 1 tri 39 40 452
900 1 tri 262 264 450
901 1 tri 329 285 480
902 1 tri 18 363 491
903 1 tri 401 434 490
904 1 tri 314 22 477
905 1 tri 303 336 487
906 1 tri 116 352 455
907 1 tri 35 97 454
908 1 tri 120 369 456
909 1 tri 256 278 453
910 1 tri 272 417 475
911 1 tri 229 425 474
912 1 tri 267 268 455
913 1 tri 12 13 457
914 1 tri 23 438 477
915 1 tri 117 434 479
916 1 tri 308 456 482
917 1 tri 446 189 476
918 1 tri 37 38 458
919 1 tri 432 283 490
920 1 tri 478 288 486
921 1 tri 481 302 487
922 1 tri 159 422 459
923 1 tri 64 65 460
924 1 tri 304 302 481
925 1 tri 456 309 463
926 1 tri 303 382 459
927 1 tri 451 348 485
928 1 tri 284 279 461
929 1 tri 12 457 468
930 1 tri 456 369 482
931 1 tri 299 411 464
932 1 tri 108 426 475
933 1 tri 422 79 471
934 1 tri 42 424 472
935 1 tri 390 284 462
936 1 tri 480 285 493
937 1 tri 61 62 467
938 1 tri 250 290 466
939 1 tri 11 12 468
940 1 tri 440 117 479
941 1 tri 70 71 469
942 1 tri 46 47 470
943 1 tri 453 278 465
944 1 tri 232 60 473
945 1 tri 80 260 471
946 1 tri 231 41 472
947 1 tri 309 307 476
948 1 tri 192 481 487
949 1 tri 46 470 478
950 1 tri 270 450 483
951 1 tri 397 287 479
952 1 tri 336 192 487
953 1 tri 218 229 474
954 1 tri 373 308 482
955 1 tri 302 303 487
956 1 tri 232 373 482
957 1 tri 45 46 478
958 1 tri 96 343 483
959 1 tri 369 232 482
960 1 tri 285 246 493
961 1 tri 98 55 489
962 1 tri 282 283 484
963 1 tri 288 280 486
964 1 tri 278 428 465
965 1 tri 426 276 475
966 1 tri 215 238 488
967 1 tri 17 18 491
968 1 tri 260 422 471
969 1 tri 424 231 472
970 1 tri 382 258 485
971 1 tri 192 404 481
972 1 tri 438 314 477
973 1 tri 286 462 492
974 1 tri 417 108 475
975 1 tri 123 407 492
976 1 tri 307 446 476
977 1 tri 283 401 490
978 1 tri 287 440 479
979 1 tri 293 447 463
980 1 tri 363 445 491
981 1 tri 258 451 485
982 1 tri 450 96 483
983 1 tri 61 467 473
984 1 tri 462 123 492
1 1
u, sol
1 0.0
2 0.0
3 1.0
4 1.0
5 1.0
6 1.0
7 1.0
8 0.0
9 0.0
10 0.0
11 0.0
12 0.0
13 0.0
14 0.0
15 0.0
16 0.0
17 0.0
18 0.0
19 1.0
20 1.0
21 1.0
22 1.0
23 1.0
24 1.0
25 1.0
26 1.0
27 1.0
28 1.0
29 1.0
30 1.0
31 1.0
32 1.0
33 1.0
34 1.0
35 1.0
36 1.0
37 1.0
38 1.0
39 1.0
40 1.0
41 1.0
42 1.0
43 1.0
44 1.0
45 1.0
46 1.0
47 1.0
48 1.0
49 1.0
50 1.0
51 1.0
52 1.0
53 1.0
54 1.0
55 1.0
56 1.0
57 1.0
58 1.0
59 1.0
60 1.0
61 1.0
62 1.0
63 1.0
64 1.0
65 1.0
66 1.0
67 1.0
68 1.0
69 1.0
70 1.0
71 1.0
72 1.0
73 1.0
74 1.0
75 1.0
76 1.0
77 1.0
78 1.0
79 1.0
80 1.0
81 1.0
82 1.0
83 1.0
84 0.0
85 0.0
86 0.0
87 0.0
88 0.0
89 0.0
90 0.0
91 0.0
92 0.0
93 0.0
94 0.0
95 0.7859813010526929
96 1.0145069858865723
97 0.7483531783051681
98 0.8882247538643308
99 0.7984510007242964
100 0.1610522832683606
101 0.050149230166338675
102 0.1774500185718837
103 0.04701774737542579
104 0.1999377933148904
105 0.2986307003777701
106 0.783572343648857
107 0.29249771591527063
108 1.0454226161523825
109 0.4071764926787173
110 0.3851622546805892
111 0.28819920165474716
112 0.08346134149151174
113 0.25489101244104434
114 0.496205253781876
115 0.5329577215848947
116 1.0668565657930027
117 0.8097885703289909
118 0.3681946408642494
119 0.28352092306314286
120 0.9541724245367095
121 0.7533940906819387
122 0.613053712973977
123 0.8663100256709235
124 1.0781227097806945
125 0.660301314404377
126 0.35821647038045235
127 0.28402672911927856
128 0.21670474683884422
129 0.22573903642563817
130 0.16908052919395877
131 0.18505930805603685
132 0.14212396957023993
133 0.1644826466549987
134 0.13765343525485874
135 0.1669001671741358
136 0.3408262901157792
137 0.1969930045565738
138 0.7280740527086569
139 0.6795252049970251
140 0.15836345890231682
141 0.13454981973395816
142 0.7806670030327937
143 0.19612649802532114
144 0.1757521222353643
145 0.15389767581929964
146 0.7940262290459382
147 0.9928241555903043
148 0.7829273777301942
149 0.7362888711703613
150 0.3601090284784782
151 0.8416418305304065
152 0.2467987202330511
153 0.7114993527868796
154 0.8345366861308409
155 0.7645446266825817
156 0.4362363506069605
157 0.21378372081603972
158 0.86789712841892
159 1.0862071761975434
160 0.8876994351674192
161 0.8176744431460609
162 0.8280092599012697
163 0.7860418134666406
164 0.8867446807626566
165 0.25224636378598325
166 0.21655605075118425
167 0.19384889030604716
168 0.13925668611595937
169 0.1776170701121367
170 0.2517175251173961
171 0.2320780206442862
172 0.865615294421526
173 0.8305648481081364
174 0.7545902507610172
175 0.28381690326836523
176 0.4449106923355776
177 0.3245558583240427
178 0.29989571034972246
179 0.33063294456048353
180 0.9382173637859653
181 0.8689227924736598
182 0.12731556355682563
183 0.10797743804007212
184 0.2580042095187124
185 0.8080320156604753
186 0.7395656446986398
187 0.26494866237254255
188 0.31410898606209553
189 0.8700645187419654
190 0.2147872311631944
191 0.2779160775542379
192 0.9424748669446077
193 0.3785258194565466
194 0.35105596137275197
195 0.9073193694366875
196 0.9321310027372239
197 0.9838135717932431
198 0.9167977480015741
199 0.7708301331605808
200 0.8182197939090224
201 0.9605361194716799
202 0.8641750355634249
203 1.0252483693589374
204 0.1590776662378386
205 0.9027296634425769
206 0.4658767793278527
207 0.4335646768575264
208 0.25350739585339327
209 0.637699541054543
210 0.6718975198048914
211 0.5175871782558077
212 0.5374364182351364
213 0.47868351423006833
214 0.3819059045717285
215 0.4291408945372032
216 0.3558604357948055
217 0.4474978942147908
218 0.9956399249190713
219 0.9099375679082374
220 0.8042726011607529
221 0.5605124803926431
222 0.5245451483815424
223 0.3999086378870436
224 0.48988636472107433
225 0.4124704357325183
226 0.3578508036621478
227 0.4502946426347584
228 0.5929959662512736
229 1.0550481282536786
230 0.7271174618955266
231 0.8315590859847586
232 0.9861789826842191
233 0.0944523900389529
234 0.09407842364712454
235 0.11394976507262101
236 0.5673838130207176
237 0.7460185681316676
238 0.5262994346752524
239 0.24961797957422527
240 0.3138299939417735
241 0.36298570299878313
242 0.45398080527355444
243 1.0490588183801266
244 0.9615045395179479
245 0.674465636951431
246 0.07803716042253765
247 0.5010691197955862
248 0.6417677270835976
249 0.5961690104952649
250 0.5858507383893523
251 0.6321470231978478
252 0.5431719634348278
253 0.4274151633849105
254 0.5064719019565983
255 0.3868420068699366
256 0.4784228860664508
257 0.2849312403573669
258 1.065012728674024
259 1.008601440527219
260 1.0725585832622377
261 0.10803600520375183
262 0.9670666359687216
263 0.9504821110096081
264 0.9801438023380431
265 0.9518875773863755
266 0.43489660753868864
267 1.0580831802583075
268 1.0695549037644718
269 1.0458226621022484
270 0.9979723869615311
271 0.9912408858255198
272 1.0282904810293947
273 0.23323056481753807
274 0.846143705479845
275 0.5199808680153407
276 1.02447596137736
277 0.35928716584983733
278 0.46537881392964375
279 0.7036012856414939
280 0.5129471924133983
281 0.4824135889780242
282 0.4911219359675863
283 0.6080627006315941
284 0.7207777116831918
285 0.09783137524005756
286 0.6498502461026006
287 0.7075617346148618
288 0.6483884299905094
289 0.9872433288157789
290 0.6706688393087775
291 0.6370143378141927
292 0.8363723412207028
293 0.8674080165215137
294 0.1088815688879799
295 1.0635691333433839
296 0.5474198196513627
297 0.44295687663183136
298 0.613563839434313
299 0.5069691239624574
300 0.5498031061043511
301 0.6141465677057161
302 0.9216011891187497
303 1.0542841960327254
304 0.6755976018979928
305 0.9645648593202463
306 0.9725508601481704
307 0.9399606801257013
308 0.9550765872926305
309 0.9176889748292223
310 0.09386231584672938
311 0.7139277328570649
312 0.5316671440772717
313 0.8347040864560485
314 0.934194767278535
315 1.0635517462996642
316 0.4022518883568104
317 0.11605159054259288
318 0.9063663851838195
319 0.7263970911439227
320 0.072772477350799
321 0.04263338717921656
322 0.12888621519641205
323 0.554191656788143
324 0.3216603393822348
325 0.22306529998965133
326 0.17019485663377365
327 0.137331768852904
328 0.09541815270100946
329 0.12862863088230478
330 0.2990746216467819
331 0.14923612359598137
332 0.6857828082319286
333 0.5046023375296513
334 0.542019119439349
335 0.9702251966226447
336 1.033238211446706
337 0.783899537218478
338 0.6224358919542382
339 0.5114676122083931
340 0.46983464294281335
341 0.3410343221125316
342 0.5755864892015591
343 1.023039801096955
344 0.2884787106249013
345 0.8664543079492151
346 0.7825558367125077
347 0.21155142437641364
348 1.0785245859348225
349 0.8579436746281258
350 0.3607016108965859
351 1.0720343011924058
352 1.0872835545168913
353 1.0751657291208216
354 1.0940140274821424
355 0.8092968430740377
356 0.7665037493023039
357 1.0058300851313464
358 0.1444753558476434
359 0.6692025111204906
360 0.394385092505199
361 0.7222513661565163
362 0.7521669783958956
363 0.41097425355415845
364 0.8006352194608454
365 0.6436029128673857
366 0.6636451896230743
367 0.6701062702553691
368 0.6146380146225449
369 0.9729637469423288
370 0.8756335307321282
371 0.11955022589398635
372 0.19614671946678697
373 0.9806108620279619
374 0.38051730524887944
375 0.3554750378779893
376 0.16389377988830792
377 0.16863795613343857
378 0.6988555396583312
379 0.20282008362799414
380 0.4447901486801065
381 0.5717055147853092
382 1.0841331449655536
383 0.8977580676406178
384 0.3254278053561505
385 0.12018680249724036
386 0.8654621489027984
387 0.27764767999962237
388 0.2962795550303501
389 0.2091819314065946
390 0.6170877301277948
391 0.8343824646639358
392 0.4090198136395632
393 0.43527306649376574
394 0.9841396381774217
395 1.0271291660878565
396 0.46619097844913815
397 0.5957306960419679
398 0.20153828344571392
399 0.3969422453871974
400 0.5776749549483943
401 0.5385651054820972
402 0.9245423396024469
403 0.29655563749778296
404 0.7234081622206694
405 0.14274332353899102
406 0.3277568525049604
407 0.8595525414078428
408 0.9372446603623891
409 0.5398380876209096
410 0.21488762650873042
411 0.42840628010819454
412 0.1858202804278542
413 0.6090802401209142
414 0.7395667198638364
415 0.37158769923945667
416 0.2663827141944101
417 1.0326385637672835
418 0.5941161245002499
419 1.0118736972268512
420 0.03127922707888343
421 0.34865038813842325
422 1.0702816852928922
423 0.6010153698368235
424 0.8469597848654379
425 1.0910532194218894
426 1.0504601290516442
427 0.2144307109522595
428 0.4600595413154424
429 0.6889020216451528
430 0.24046693317817938
431 0.11170557545689999
432 0.7735211154541929
433 0.47092747761743464
434 0.6545551648034879
435 0.26995473173525175
436 0.827447266026598
437 0.3085164400966331
438 0.9402163142626423
439 0.5983622341859526
440 0.8469365902424908
441 0.6219047557158597
442 0.9917547005120383
443 0.18044644800336623
444 0.4372773591728399
445 0.3365416942782389
446 0.9227696235335524
447 0.9313005768384119
448 0.7821526906223846
449 0.8304485732462803
450 1.0015166029669216
451 1.0949940269811254
452 0.8356672235944147
453 0.5760256529417636
454 0.7773445457294729
455 1.0794493339250735
456 0.9453090232806943
457 0.0623364193492466
458 0.8076390253819531
459 1.0887719816024224
460 0.9999114119113878
461 0.8018546476360714
462 0.7387946065012795
463 0.9033304070133099
464 0.5807218470524294
465 0.5970781433834649
466 0.7033591486823616
467 0.9935645944366576
468 0.04190738549180542
469 1.0411508474874924
470 0.8055415221428484
471 1.0443386135526291
472 0.9206871957597355
473 0.9954460441853243
474 1.0656186899513689
475 1.0435653020026028
476 0.903302492827119
477 0.9744606109838583
478 0.8242044417374246
479 0.7274130739911335
480 0.0864219326470396
481 0.8015612574180832
482 0.9703894594446992
483 1.0171314372502647
484 0.6318994899962577
485 1.0938705145233327
486 0.6488176782544963
487 0.9888723879866699
488 0.5425562446640166
489 0.9236074040436254
490 0.6649987104937756
491 0.17356918986119627
492 0.7619360412793843
493 0.06478633485128875
